 $CONTRL SCFTYP={{ SCFTYP }} MULT={{ MULT }} NPRINT=-5 RUNTYP=OPTIMIZE $END
 $STATPT OPTTOL={{ OPTTOL }} NSTEP={{ NSTEP }} NPRT=-2 $END
 $BASIS  GBASIS={{ GBASIS }} NGAUSS={{ NGAUSS }} $END

 $DATA
{{ MOLNAME }}
C1
{% for i in COORDINATES -%}
{{ i }}
{%- endfor -%}
 $END 