 $CONTRL SCFTYP={{ SCFTYP }} MULT={{ MULT }} RUNTYP=OPTIMIZE $END
 $STATPT OPTTOL={{ OPTTOL }} NSTEP={{ NSTEP }} $END
 $BASIS  GBASIS={{ GBASIS }} NGAUSS={{ NGAUSS }} $END

$DATA
C1
{% for i in COORDINATES -%}
{{ i }}
{%- endfor -%}
 $END 