 $CONTRL SCFTYP=RHF MULT=1 RUNTYP=OPTIMIZE $END
 $STATPT OPTTOL=0.0005 NSTEP=100 $END
 $BASIS  GBASIS=N31 NGAUSS=6 $END

$DATA
C1
 O           8.0  -3.1653408462   0.6356877423  -0.0159611523
 C           6.0  -2.0638705169   0.1433353987  -0.0422337969
 O           8.0  -0.9641934909   0.9716032877  -0.0674019256
 C           6.0  -1.7750007318  -1.2871835302  -0.0521999738
 C           6.0   0.3390418371   0.5322400519  -0.0396322582
 C           6.0  -0.5182488792  -1.7406343568  -0.0355879939
 C           6.0   0.6118633369  -0.8297790609  -0.0099302446
 C           6.0   1.3447358463   1.4824675604  -0.0359253715
 C           6.0   1.9458791868  -1.2400669489   0.0462841369
 C           6.0   2.6580408122   1.0544885021   0.0182395050
 C           6.0   2.9623278007  -0.3066132702   0.0659246829
 H           1.0  -2.6260430679  -1.9339135387  -0.0683227935
 H           1.0  -0.3226127769  -2.7958011481  -0.0418992733
 H           1.0   1.0829097033   2.5196494116  -0.0709490648
 H           1.0   2.1723702767  -2.2888914058   0.0786179592
 H           1.0   3.4493191420   1.7779863626   0.0268522078
 H           1.0   3.9843403061  -0.6252532194   0.1187499120
$END 